30	100	100	100
44	21	48
24	9	21
1	49	43
17	42	3
10	35	28
12	15	6
10	32	46
2	5	3
14	34	10
2	44	9
44	37	41
26	25	37
29	15	48
45	12	7
48	26	26
7	47	46
30	36	1
40	4	49
14	9	19
28	18	17
5	39	27
26	33	29
27	20	10
18	27	7
35	1	38
48	41	26
25	5	43
39	42	36
39	4	33
49	32	34
